(declare-const y0 Real)
(declare-const y1 Real)
(declare-const y2 Real)
(declare-const y3 Real)
(declare-const y4 Real)
(declare-const y5 Real)
(declare-const y6 Real)
(declare-const y7 Real)
(declare-const y8 Real)
(declare-const y9 Real)
(declare-const y10 Real)
(declare-const y11 Real)
(declare-const y12 Real)
(declare-const y13 Real)
(declare-const y14 Real)
(declare-const y15 Real)
(declare-const y16 Real)
(declare-const y17 Real)
(assert (< y10 24))
(assert (< 26 90))
(assert (= (+ (+ 76 77) (+ 78 58)) 15))
(assert (< 11 y6))
(assert (= (< y9 (+ (+ 40 91) 33)) (= y11 y5)))
(assert (< 31 18))
(assert (= (+ (+ y7 45) y5) 85))
(assert (= 23 40))
(assert (= (= (< y3 88) (< y15 y3)) (= 68 67)))
(assert (= 58 83))
(check-sat)
